set V := 1 2 3 4 5 6 7 8;

param E : 1 2 3 4 5 6 7 8 :=
1   0 1 1 1 1 1 1 0
2   1 0 1 1 1 1 0 1
3   1 1 0 1 1 0 1 1
4   1 1 1 0 0 1 1 1
5   1 1 1 0 0 0 0 0
6   1 1 0 1 0 0 0 0
7   1 0 1 1 0 0 0 0
8   0 1 1 1 0 0 0 0
;